65 63 71 70 56 59 23 68 21 49 
67 24 54 9 39 48 34 2 1 75 
18 42 10 8 38 45 4 22 52 
20 33 41 19 26 12 51 66 69 47 
32 43 40 27 11 73 6 50 
17 3 74 15 16 14 36 
55 35 44 37 58 60 64 
5 7 31 62 72 46 61 
13 57 53 29 30 28 
25 

